(set-option :produce-models true)
(declare-const words_size0 Int)
(declare-const words_size1 Int)
(declare-const words_size2 Int)
(declare-const words_stride0 Int)
(declare-const words_stride1 Int)
(declare-const words_stride2 Int)
(declare-const words_storage_offset Int)
(define-fun ge () Bool (>= words_size0 0))
(assert ge)
(define-fun ge_1 () Bool (>= words_size1 0))
(assert ge_1)
(define-fun ge_2 () Bool (>= words_size2 0))
(assert ge_2)
(define-fun eq () Bool (= words_size0 0))
(define-fun not_ () Bool (not eq))
(assert not_)
(define-fun sub () Int (- words_size0 1))
(define-fun mul () Int (* words_stride0 sub))
(define-fun add () Int (+ 1 mul))
(define-fun eq_1 () Bool (= words_size1 0))
(define-fun not__1 () Bool (not eq_1))
(assert not__1)
(define-fun sub_1 () Int (- words_size1 1))
(define-fun mul_1 () Int (* words_stride1 sub_1))
(define-fun add_1 () Int (+ add mul_1))
(define-fun eq_2 () Bool (= words_size2 0))
(define-fun not__2 () Bool (not eq_2))
(assert not__2)
(define-fun sub_2 () Int (- words_size2 1))
(define-fun mul_2 () Int (* words_stride2 sub_2))
(define-fun add_2 () Int (+ add_1 mul_2))
(define-fun mul_3 () Int (* 4 add_2))
(define-fun mul_4 () Int (* words_size0 words_size1))
(define-fun mul_5 () Int (* mul_4 words_size2))
(define-fun eq_3 () Bool (= mul_5 0))
(define-fun not__3 () Bool (not eq_3))
(assert not__3)
(define-fun eq_4 () Bool (= words_size2 1))
(define-fun not__4 () Bool (not eq_4))
(assert not__4)
(define-fun eq_5 () Bool (= words_stride2 1))
(assert eq_5)
(define-fun eq_6 () Bool (= words_size1 1))
(define-fun not__5 () Bool (not eq_6))
(assert not__5)
(define-fun eq_7 () Bool (= words_stride1 words_size2))
(assert eq_7)
(define-fun mul_6 () Int (* words_size2 words_size1))
(define-fun eq_8 () Bool (= words_size0 1))
(define-fun not__6 () Bool (not eq_8))
(assert not__6)
(define-fun eq_9 () Bool (= words_stride0 mul_6))
(assert eq_9)
(define-fun mul_7 () Int (* mul_6 words_size0))
(define-fun eq_10 () Bool (= words_size0 words_size0))
(assert eq_10)
(define-fun eq_11 () Bool (= words_size1 words_size1))
(assert eq_11)
(define-fun eq_12 () Bool (= words_size2 words_size2))
(assert eq_12)
(define-fun eq_13 () Bool (= words_stride2 0))
(define-fun not__7 () Bool (not eq_13))
(assert not__7)
(define-fun eq_14 () Bool (= words_stride1 0))
(define-fun not__8 () Bool (not eq_14))
(assert not__8)
(define-fun lt () Bool (< words_stride2 words_stride1))
(assert lt)
(define-fun eq_15 () Bool (= words_stride0 0))
(define-fun not__9 () Bool (not eq_15))
(assert not__9)
(define-fun lt_1 () Bool (< words_stride1 words_stride0))
(assert lt_1)
(define-fun mul_8 () Int (* mul_6 sub))
(define-fun add_3 () Int (+ 1 mul_8))
(define-fun mul_9 () Int (* words_size2 sub_1))
(define-fun add_4 () Int (+ add_3 mul_9))
(define-fun add_5 () Int (+ add_4 sub_2))
(define-fun mul_10 () Int (* 4 add_5))
(define-fun eq_16 () Bool (= mul_6 mul_6))
(assert eq_16)
(define-fun ge_3 () Bool (>= words_storage_offset 0))
(assert ge_3)
(define-fun add_6 () Int (+ words_storage_offset add_2))
(define-fun mul_11 () Int (* 4 add_6))
(define-fun eq_17 () Bool (= mul_11 0))
(define-fun not__10 () Bool (not eq_17))
(assert not__10)
(check-sat)
(get-model)
